/*********************************************
 * OPL 20.1.0.0 Data
 * Author: Mael
 * Creation Date: 18 déc. 2021 at 07:55:28
 *********************************************/

 
n = 7;

poids = [
0
1
3
4
2
2
2
1
];

dist = [
29.120439557122072
28.460498941515414
19.924858845171276
26.92582403567252
16.401219466856727
20.223748416156685
25.019992006393608
17.029386365926403
43.41658669218482
37.589892258425
38.3275357934736
33.24154027718932
53.46026561849464
34.48187929913333
23.345235059857504
43.04648650006177
41.72529209005013
52.952809179494906
17.08800749063506
32.2490309931942
39.11521443121589
27.586228448267445
42.941821107167776
46.84015371452148
43.60045871318328
9.899494936611665
19.209372712298546
29.068883707497267
];